Route #1: 151 113 82 11 77 2 153 112 89 81 60 109 114 29 58 39 10 134 25 138 52 107 18 34
Route #2: 15 147 118 20 75 69 99 93 16 68 36 103 65 87 97 62 142 128 26 120 14 49
Route #3: 61 17 56 67 4 35 95 55 115 6 121 21 135 73 106 3 42 32 122 38
Route #4: 143 41 110 54 131 133 50 23 31 140 85 144 53 123 98 154 105 152 37 116 19 44 8 148
Route #5: 13 63 64 141 24 43 88 47 70 137 7 28 66 94 86 132 111 102 96 150
Route #6: 129 91 100 51 90 45 83 57 5 126 136 76 119 12 30 22 155 74 79 84 33 48 72
Route #7: 101 71 149 59 156 92 139 125 1 117 78 9 108 40 146 80 145 127 104 46 130 124 27
Cost 11077.000000